
  12    4
  10   10   10   10

   0   0   0   0   0   3 2 3 5 
  10  10  10  10  10   1 4 
   5  10  10  10  10   1 4 
  10  10  10  10  10   2 7 6 
   1  10  10  10  10   2 10 6 
   8  10  10  10  10   2 11 8 
   7  10  10  10  10   2 10 9 
   1  10  10  10  10   1 9 
   6  10  10  10  10   1 12
   5  10  10  10  10   1 12
   4  10  10  10  10   1 12
   0   0   0   0   0   0 
